!File created by NanoVNA
# Hz S RI R 50
135000000  0.799316096 -0.530749984
138150000  0.811182528 -0.547693632
141300000  0.808137920 -0.567226048
144450000  0.800135424 -0.583949376
147600000  0.791108416 -0.598336320
150750000  0.781697280 -0.611027136
153900000  0.772400640 -0.623198528
157050000  0.762743488 -0.634769472
160200000  0.753031616 -0.646344128
163350000  0.742991872 -0.657462784
166500000  0.732509824 -0.668479232
169650000  0.721986560 -0.679215424
172800000  0.711479168 -0.689710720
175950000  0.700500032 -0.700052544
179100000  0.689592704 -0.710193408
182250000  0.678028288 -0.720145600
185400000  0.666685760 -0.730559424
188550000  0.654992896 -0.740063040
191700000  0.643565504 -0.750094336
194850000  0.631074176 -0.759223296
198000000  0.619159424 -0.769288384
201150000  0.606128320 -0.778705088
204300000  0.592133376 -0.788060160
207450000  0.578080704 -0.797317504
210600000  0.563661632 -0.806139904
213750000  0.548756736 -0.815096896
216900000  0.533182336 -0.823530624
220050000  0.516605920 -0.832454976
223200000  0.498959424 -0.841541056
226350000  0.479741792 -0.850358208
229500000  0.459074048 -0.858717632
232650000  0.437062848 -0.865486656
235800000  0.413759808 -0.872157824
238950000  0.389704896 -0.878250112
242100000  0.361600480 -0.886050368
245250000  0.328758976 -0.890881024
248400000  0.291159360 -0.894157696
251550000  0.246278512 -0.893731776
254700000  0.194134064 -0.885893760
257850000  0.132487192 -0.871163328
261000000  0.052651972 -0.838139904
264150000 -0.047648784 -0.760831616
267300000 -0.107997392 -0.590788416
270450000 -0.119212816 -0.413151232
273600000  0.032867224 -0.140098400
276750000  0.376938656 -0.080047976
279900000  0.599860288 -0.245970352
283050000  0.664033920 -0.420399200
286200000  0.659766144 -0.544234624
289350000  0.638184320 -0.627155008
292500000  0.613631616 -0.691178560
295650000  0.582994880 -0.732292160
298800000  0.555258240 -0.766895040
301950000  0.526555840 -0.784856384
305100000  0.502336384 -0.805397504
308250000  0.480017472 -0.822012608
311400000  0.459235648 -0.835704384
314550000  0.439817600 -0.847069120
317700000  0.421705536 -0.857083392
320850000  0.404088864 -0.866661632
324000000  0.386799520 -0.875560256
327150000  0.370484544 -0.882443904
330300000  0.354327296 -0.889727488
333450000  0.338114720 -0.895119936
336600000  0.320909888 -0.901612224
339750000  0.306372576 -0.905605440
342900000  0.289339648 -0.909440576
346050000  0.272530592 -0.913424960
349200000  0.256217008 -0.913950976
352350000  0.241340016 -0.913329152
355500000  0.227096624 -0.912417664
358650000  0.213478192 -0.909676992
361800000  0.201633200 -0.905908928
364950000  0.191768896 -0.901733120
368100000  0.185525792 -0.898709888
371250000  0.180374336 -0.897770496
374400000  0.175329648 -0.896116288
377550000  0.172362896 -0.897881920
380700000  0.167583232 -0.899915392
383850000  0.160701024 -0.907073344
387000000  0.152966688 -0.912756288
390150000  0.144794752 -0.917999680
393300000  0.135027888 -0.922852416
396450000  0.124503384 -0.928291968
399600000  0.112498472 -0.933457344
402750000  0.100850640 -0.936447936
405900000  0.089309544 -0.939167360
409050000  0.079307200 -0.939169408
412200000  0.066748844 -0.944238784
415350000  0.054797592 -0.945328704
418500000  0.042632696 -0.946922112
421650000  0.031365432 -0.947395072
424800000  0.020617046 -0.947461248
427950000  0.009268330 -0.950393280
431100000 -0.002115497 -0.951369728
434250000 -0.015486728 -0.952918144
437400000 -0.022113748 -0.946523200
440550000 -0.051825664 -0.975300992
443700000 -0.047018596 -0.956087616
446850000 -0.058581756 -0.955224768
450000000 -0.069501376 -0.955903040
