!File created by NanoVNA
# Hz S RI R 50
50000  1.000393629  0.000130278
9049500  0.998341376 -0.052015856
18049000  0.992352256 -0.102940928
27048500  0.983206272 -0.152813328
36048000  0.970847296 -0.201631712
45047500  0.955242432 -0.249237328
54047000  0.937519040 -0.294483424
63046500  0.917249536 -0.337373280
72046000  0.895150016 -0.377283168
81045500  0.870049792 -0.415215136
90045000  0.840727680 -0.454095456
99044500  0.812586112 -0.489614912
108044000  0.783625792 -0.522127456
117043500  0.752711488 -0.551933568
126043000  0.719968896 -0.578666304
135042500  0.685181312 -0.601871424
144042000  0.646756800 -0.619101440
153041500  0.606118528 -0.614641920
162041000  0.622224192 -0.593945408
171040500  0.633674048 -0.658641664
180040000  0.593406592 -0.703713344
189039500  0.553417088 -0.730891200
198039000  0.516184992 -0.751134144
207038500  0.480836672 -0.766873856
216038000  0.446989024 -0.782698688
225037500  0.412774016 -0.796366144
234037000  0.379028192 -0.807713472
243036500  0.344013792 -0.817835136
252036000  0.309512928 -0.826716544
261035500  0.274401024 -0.834266176
270035000  0.236920112 -0.837674304
279034500  0.199261808 -0.838328128
288034000  0.160836960 -0.835800512
297033500  0.120441176 -0.824387200
306033000  0.086829808 -0.803782400
315032500  0.064781844 -0.776460992
324032000  0.045465400 -0.744434240
333031500  0.055753404 -0.711382208
342031000  0.090155456 -0.703100160
351030500  0.108988376 -0.737545152
360030000  0.096611304 -0.769378432
369029500  0.077869984 -0.794018816
378029000  0.051345892 -0.813525568
387028500  0.024376296 -0.826623680
396028000 -0.002658075 -0.836701952
405027500 -0.030671152 -0.843720384
414027000 -0.058409808 -0.848827264
423026500 -0.086972872 -0.850072320
432026000 -0.115334472 -0.847789632
441025500 -0.141442320 -0.843469440
450025000 -0.168274544 -0.841090304
459024500 -0.196835568 -0.835775232
468024000 -0.223192672 -0.831469760
477023500 -0.250195712 -0.824590080
486023000 -0.275925312 -0.817354368
495022500 -0.302333120 -0.805935360
504022000 -0.325447584 -0.794122240
513021500 -0.349984416 -0.781287488
522021000 -0.373641312 -0.767806976
531020500 -0.398581760 -0.751146304
540020000 -0.419291008 -0.732151360
549019500 -0.437060448 -0.713743680
558019000 -0.454095200 -0.692948928
567018500 -0.465913696 -0.670112832
576018000 -0.471859328 -0.648804160
585017500 -0.481462720 -0.634001152
594017000 -0.466046208 -0.617404800
603016500 -0.465098176 -0.602986880
612016000 -0.460396928 -0.591454208
621015500 -0.452872832 -0.588953920
630015000 -0.449712224 -0.591249280
639014500 -0.450147456 -0.597662016
648014000 -0.459938080 -0.604901312
657013500 -0.472770752 -0.610215744
666013000 -0.487057440 -0.612357952
675012500 -0.503621056 -0.612596160
684012000 -0.521079712 -0.611438976
693011500 -0.539129792 -0.609406592
702011000 -0.558236480 -0.604117056
711010500 -0.574881088 -0.597734720
720010000 -0.591968000 -0.591432064
729009500 -0.608554560 -0.582496704
738009000 -0.624326144 -0.573871424
747008500 -0.642383488 -0.562399680
756008000 -0.655845248 -0.551126016
765007500 -0.671196160 -0.540677696
774007000 -0.686408512 -0.529533440
783006500 -0.698465472 -0.515009408
792006000 -0.713706944 -0.501325952
801005500 -0.727197568 -0.485892480
810005000 -0.738551040 -0.472512224
819004500 -0.752084736 -0.480405920
828004000 -0.763994048 -0.439412032
837003500 -0.773148032 -0.423259936
846003000 -0.783115008 -0.404957408
855002500 -0.791688896 -0.389332448
864002000 -0.801928320 -0.373917472
873001500 -0.809462592 -0.356924160
882001000 -0.818544320 -0.339843808
891000500 -0.824585472 -0.322520480
900000000 -0.829960768 -0.303223040
