!File created by NanoVNA
# Hz S RI R 50
50000  1.000262737  0.000132592  0.000016403 -0.000016071 0 0 0 0
9049500  0.998366464 -0.051905604  0.000008607 -0.000007705 0 0 0 0
18049000  0.992492288 -0.102830192  0.000018753  0.000011542 0 0 0 0
27048500  0.983312896 -0.152956896  0.000030750  0.000002578 0 0 0 0
36048000  0.971103040 -0.201684288  0.000017168 -0.000008611 0 0 0 0
45047500  0.955635456 -0.249453120  0.000020343  0.000006178 0 0 0 0
54047000  0.938034816 -0.294853792  0.000028073  0.000027771 0 0 0 0
63046500  0.918013312 -0.337975904  0.000004488  0.000010318 0 0 0 0
72046000  0.895686592 -0.378213792  0.000040663  0.000013844 0 0 0 0
81045500  0.870584448 -0.416438208  0.000001250  0.000001293 0 0 0 0
90045000  0.841196672 -0.455748672  0.000026449  0.000011830 0 0 0 0
99044500  0.813078464 -0.491779168  0.000016329  0.000003601 0 0 0 0
108044000  0.783666944 -0.524671008  0.000031024  0.000003967 0 0 0 0
117043500  0.752254720 -0.554814848  0.000016557  0.000001355 0 0 0 0
126043000  0.718613568 -0.581761472  0.000005944  0.000020002 0 0 0 0
135042500  0.682744320 -0.605264256  0.000008824 -0.000014597 0 0 0 0
144042000  0.642598144 -0.620594816  0.000007680  0.000010341 0 0 0 0
153041500  0.603483136 -0.607439488  0.000006832 -0.000001340 0 0 0 0
162041000  0.636797696 -0.601482432 -0.000010513 -0.000015567 0 0 0 0
171040500  0.628310656 -0.668987072 -0.000011687 -0.000001371 0 0 0 0
180040000  0.588406400 -0.707717568 -0.000001951  0.000000364 0 0 0 0
189039500  0.548893952 -0.733167744  0.000001243 -0.000001794 0 0 0 0
198039000  0.512310912 -0.752608896 -0.000025673  0.000008519 0 0 0 0
207038500  0.477242816 -0.768942144  0.000004711 -0.000008031 0 0 0 0
216038000  0.443658272 -0.785184128  0.000000625  0.000011423 0 0 0 0
225037500  0.408849696 -0.798389568 -0.000010923  0.000035949 0 0 0 0
234037000  0.374708960 -0.810070144  0.000004413  0.000021178 0 0 0 0
243036500  0.339952352 -0.820439040 -0.000007405  0.000020758 0 0 0 0
252036000  0.304498688 -0.829380544 -0.000018017  0.000006546 0 0 0 0
261035500  0.268651424 -0.836977344 -0.000011531  0.000036300 0 0 0 0
270035000  0.231153168 -0.840093440 -0.000002272  0.000033002 0 0 0 0
279034500  0.192485312 -0.841333120  0.000005859  0.000018036 0 0 0 0
288034000  0.151586704 -0.837544512  0.000024123  0.000007800 0 0 0 0
297033500  0.109851432 -0.825474240  0.000035039  0.000040739 0 0 0 0
306033000  0.072734776 -0.804566592  0.000364150  0.000326570 0 0 0 0
315032500  0.043274892 -0.767553344  0.000253824 -0.000308077 0 0 0 0
324032000  0.028107340 -0.729586304 -0.000004556  0.000100583 0 0 0 0
333031500  0.044352372 -0.688373952 -0.000077148  0.000134623 0 0 0 0
342031000  0.090470368 -0.681329024  0.000190864 -0.000281645 0 0 0 0
351030500  0.115561728 -0.719440640  0.000066285  0.000081504 0 0 0 0
360030000  0.106210224 -0.755984768 -0.000027735 -0.000190536 0 0 0 0
369029500  0.086849704 -0.784493312 -0.000206135 -0.000054500 0 0 0 0
378029000  0.062464852 -0.806571392 -0.000227334  0.000222279 0 0 0 0
387028500  0.034022104 -0.822065472 -0.000410943 -0.000262467 0 0 0 0
396028000  0.006007369 -0.833787776 -0.000221102 -0.000114998 0 0 0 0
405027500 -0.023172220 -0.841896320  0.000087344 -0.000039808 0 0 0 0
414027000 -0.052504728 -0.846757312 -0.000094032  0.000153024 0 0 0 0
423026500 -0.080367304 -0.847946880  0.000197009 -0.000076196 0 0 0 0
432026000 -0.108052616 -0.846345216 -0.000045843  0.000031011 0 0 0 0
441025500 -0.134671712 -0.842795776  0.000142698  0.000055539 0 0 0 0
450025000 -0.161436048 -0.841460864 -0.000160901 -0.000045455 0 0 0 0
459024500 -0.188881520 -0.838011008 -0.000040814  0.000040293 0 0 0 0
468024000 -0.215872352 -0.833348928 -0.000245627  0.000211674 0 0 0 0
477023500 -0.241981968 -0.826147712  0.000092152  0.000019380 0 0 0 0
486023000 -0.268232800 -0.819694272 -0.000169979  0.000225180 0 0 0 0
495022500 -0.294046880 -0.808190464  0.000113643 -0.000109679 0 0 0 0
504022000 -0.318005120 -0.798951936 -0.000031388 -0.000077286 0 0 0 0
513021500 -0.340763616 -0.787581952 -0.000092011  0.000079268 0 0 0 0
522021000 -0.363680512 -0.776474688 -0.000030884  0.000109523 0 0 0 0
531020500 -0.386799616 -0.762800064 -0.000058067  0.000098806 0 0 0 0
540020000 -0.408248096 -0.747235968  0.000069178  0.000220490 0 0 0 0
549019500 -0.426958080 -0.732646208  0.000006589  0.000106088 0 0 0 0
558019000 -0.444869984 -0.716526464  0.000259490  0.000141109 0 0 0 0
567018500 -0.460969536 -0.699142400  0.000306128  0.000082966 0 0 0 0
576018000 -0.474442400 -0.681444992 -0.000203681 -0.000077307 0 0 0 0
585017500 -0.484757408 -0.665793984 -0.000147020  0.000441034 0 0 0 0
594017000 -0.481190304 -0.651670592  0.000512686  0.000238400 0 0 0 0
603016500 -0.489236384 -0.635318400 -0.000084392  0.000154207 0 0 0 0
612016000 -0.493609856 -0.619575104 -0.000207892  0.000166368 0 0 0 0
621015500 -0.494756768 -0.607217024  0.000280478 -0.000111715 0 0 0 0
630015000 -0.496187104 -0.598079232  0.000092237 -0.000040627 0 0 0 0
639014500 -0.494837056 -0.591534656 -0.000297190  0.000191141 0 0 0 0
648014000 -0.498215648 -0.589872128 -0.000028616  0.000192864 0 0 0 0
657013500 -0.504046336 -0.588951424 -0.000024076  0.000099172 0 0 0 0
666013000 -0.508919712 -0.587810304 -0.000197644  0.000001652 0 0 0 0
675012500 -0.519605280 -0.587847552 -0.000023978 -0.000162117 0 0 0 0
684012000 -0.532043392 -0.587731328  0.000149346 -0.000024367 0 0 0 0
693011500 -0.545268416 -0.587244864 -0.000076003  0.000008607 0 0 0 0
702011000 -0.559958784 -0.584772544 -0.000119802 -0.000070647 0 0 0 0
711010500 -0.576792000 -0.579265024  0.000180421 -0.000117795 0 0 0 0
720010000 -0.591042368 -0.572802432  0.000046848 -0.000210153 0 0 0 0
729009500 -0.604815424 -0.567113728 -0.000120559 -0.000206412 0 0 0 0
738009000 -0.622223744 -0.560426624  0.000134827 -0.000055876 0 0 0 0
747008500 -0.637521536 -0.551443392 -0.000060339  0.000101965 0 0 0 0
756008000 -0.652642816 -0.541467648 -0.000020171 -0.000060832 0 0 0 0
765007500 -0.667442624 -0.532002688  0.000150334 -0.000253139 0 0 0 0
774007000 -0.683797696 -0.521039904 -0.000025887 -0.000253090 0 0 0 0
783006500 -0.698827840 -0.508888608  0.000419622  0.000147691 0 0 0 0
792006000 -0.712872128 -0.495866752  0.000037903 -0.000184849 0 0 0 0
801005500 -0.726841664 -0.479482528  0.000180064 -0.000325804 0 0 0 0
810005000 -0.739671232 -0.465384192 -0.000268092 -0.000349424 0 0 0 0
819004500 -0.745771904 -0.467795232  0.000228809  0.000138282 0 0 0 0
828004000 -0.765751360 -0.435489056  0.000181784 -0.000074082 0 0 0 0
837003500 -0.775273472 -0.416180672 -0.000149413 -0.000196338 0 0 0 0
846003000 -0.786714880 -0.397746528  0.000206197 -0.000468920 0 0 0 0
855002500 -0.795503040 -0.380662112  0.000177564 -0.000226768 0 0 0 0
864002000 -0.802691904 -0.363235840  0.000386517 -0.000001041 0 0 0 0
873001500 -0.810006080 -0.346041024  0.000525127 -0.000199821 0 0 0 0
882001000 -0.819910592 -0.328020928  0.000603204 -0.000013849 0 0 0 0
891000500 -0.824467648 -0.308867808  0.000760014 -0.000066114 0 0 0 0
900000000 -0.827978944 -0.292030080  0.000472427  0.000381451 0 0 0 0
